
  14    0


   0   8 2 3 4 5 10 11 12 13 
   6   2 9 6 
   8   2 8 6 
   8   1 7 
  10   1 6 
   8   1 14
   4   1 14
   6   1 14
   2   1 14
   7   1 14
   2   1 14
   1   1 14
   5   1 14
   0   0 
